TITL cyc_sc_alpha_twin_twin1_hklf4_a.res in C2/c
REM Old TITL Cyc_SC_alpha_twin_twin1_hklf4 in C2/c
REM SHELXT solution in C2/c: R1 0.361, Rweak 0.059, Alpha 0.099
REM <I/s> 0.000 for 0 systematic absences, Orientation as input
REM Formula found by SHELXT: C68 N41 Cl10 Zn4
CELL 1.54184 32.3493 14.465 30.3607 90 99.999 90
ZERR 8 0.0011 0.0008 0.0012 0 0.004 0
LATT 7
SYMM -X,+Y,0.5-Z
SFAC C H Cl N Zn
UNIT 324 253.33 48 88 24
EADP C01L C014 C01H C01F N01C C01M
EADP C010 C018 C01G C015 C00B
EADP C01I C01K C019 C01D
EADP Cl1 Cl00
EADP Zn03 Zn
RIGU 0.001 0.001 Cl1A Zn Cl
EADP Cl1A Cl1
RIGU 0.001 0.001 Cl1 Zn03 Cl00
EADP Cl00 Cl
SIMU 0.01 0.01 2 N00F N00J N00K
EADP C2 C18 C19 C4 C3 C11
SIMU C1 C5 C6 C7 C8 C9
DANG 2.54 C1 C6 C1 C8 C5 C7 C6 C8 C7 C9
RIGU C1 C5 C6 C7 C8 C9
SADI 0.04 C1 C8 C6 C8 C5 C9 C5 C7 C7 C9 C1 C6
DFIX 1.54 C1 C5 C1 C9 C5 C6 C6 C7 C7 C8 C8 C9
SADI C1 C5 C5 C6 C6 C7 C7 C8 C8 C9 C9 C1
EADP C7 C1 C5 C9 C6 C8
RIGU 0.01 0.01 Cl04 Zn02 Cl06
SIMU N00K N00J N00F

L.S. 20
PLAN  51
TEMP -173
CONF
list 4
MORE -1
BOND $H
fmap 2 53
acta 
BASF 0.460428
WGHT 0.2 0
FVAR 0.981605 0.59596
REM <olex2.extras>
REM <HklSrc "%.\\Cyc_SC_alpha_twin_twin1_hklf5.hkl">
REM </olex2.extras>

Zn01  5     0.41896  0.35090  0.40509  11.00000  10.05661  10.02631 =
 10.05039  10.00001 -10.02675  10.00702 
Zn02  5     0.63064  1.12358  0.54073  11.00000  0.04522  0.03531  0.06238 =
 0.01192 -0.02659 -0.00901 
PART 1
Zn03  5     0.32397  0.85466  0.73140  21.00000  10.08605  10.01786 =
 10.06486  10.00031  10.02592 -10.00005 
PART 0
Cl04  3     0.61509  1.25326  0.57334  11.00000  0.06095  0.03388  0.08780 =
 0.00566 -0.03082 -0.00165 
Cl05  3     0.38310  0.24605  0.43548  11.00000  10.07708  10.02679 =
 10.08690  10.00689 -10.02607 -10.01039 
Cl06  3     0.65104  1.10581  0.47640  11.00000  0.06278  0.08412  0.05975 =
 0.02008 -0.01133 -0.01355 
Cl07  3     0.47223  0.32799  0.36985  11.00000  10.07551  10.07035 =
 10.05426 -10.00307 -10.01532  10.02612 
PART 1
Cl00  3     0.26798  0.77029  0.70999  21.00000  10.12387  10.02919 =
 10.09792  10.00504  10.04844 -10.00167 
Cl1   3     0.36222  0.84548  0.79920  21.00000  10.12387  10.02919 =
 10.09792  10.00504  10.04844 -10.00167 
PART 0
N00A  4     0.48374  0.75933  0.52235  11.00000  10.03398  10.02020 =
 10.04721  10.00201 -10.01630  10.00017 
C00B  1     0.87628  1.07061  0.86139  11.00000  10.05438  10.01716 =
 10.05188 -10.00027 -10.02444  10.00015 
N00D  4     0.43831  0.45174  0.45166  11.00000  10.04303  10.02370 =
 10.04587  10.00541 -10.02053 -10.00068 
N00E  4     0.42876  0.70648  0.55970  11.00000  10.04170  10.03677 =
 10.04620  10.00027  10.00044  10.00419 
N00F  4     0.81396  0.83244  0.75063  11.00000  10.05286  10.00724 =
 10.05462  10.00021 -10.01239  10.00309 
AFIX 43
H00F  2     0.83341  0.80560  0.77035  11.00000 -1.20000 
AFIX 0
N00G  4     0.46317  0.85002  0.58022  11.00000  10.04842  10.03358 =
 10.04852 -10.00161 -10.00639  10.00676 
N00H  4     0.58112  1.03155  0.53892  11.00000  10.04631  10.03559 =
 10.05903  10.01124 -10.02079 -10.01297 
N00I  4     0.67309  1.05522  0.58815  11.00000  10.04481  10.03182 =
 10.05139  10.00555 -10.02568 -10.00985 
N00J  4     0.76476  0.82233  0.68421  11.00000  10.05096  10.02162 =
 10.04559 -10.00378 -10.01221 -10.00820 
N00K  4     0.77883  0.96811  0.72188  11.00000  10.04642  10.00321 =
 10.04846  10.00171 -10.01930 -10.00487 
C00L  1     0.46593  0.51646  0.44352  11.00000  10.03982  10.03417 =
 10.04400  10.01197 -10.02141  10.00447 
AFIX 43
H00L  2     0.48148  0.50696  0.42008  11.00000 -1.20000 
AFIX 0
C00M  1     0.51993  0.90170  0.54542  11.00000  10.03592  10.01864 =
 10.05706  10.00299 -10.01669  10.00367 
C00N  1     0.44992  0.60993  0.50236  11.00000  10.03227  10.02718 =
 10.03685  10.00424 -10.01517  10.00233 
C00O  1     0.47213  0.59769  0.46905  11.00000  10.03948  10.02682 =
 10.03774  10.00710 -10.01172 -10.00251 
AFIX 43
H00O  2     0.49158  0.64319  0.46302  11.00000 -1.20000 
AFIX 0
C00P  1     0.45411  0.69809  0.53053  11.00000  10.03957  10.02470 =
 10.04141  10.00558 -10.01584 -10.00300 
C00Q  1     0.48646  0.83198  0.54929  11.00000  10.03253  10.02347 =
 10.04909  10.00856 -10.01354 -10.00444 
C00R  1     0.80544  0.92145  0.75287  11.00000  10.04937  10.00835 =
 10.04795 -10.00784 -10.01854  10.00191 
C00S  1     0.79113  0.78447  0.71629  11.00000  10.04300  10.01406 =
 10.04895 -10.00429  10.00208  10.00054 
C00T  1     0.75884  0.91617  0.68773  11.00000  10.04392  10.02273 =
 10.04048 -10.00331 -10.01428 -10.00049 
C00U  1     0.43419  0.78449  0.58443  11.00000  10.05029  10.02594 =
 10.04237 -10.00144 -10.00000 -10.00713 
N00V  4     0.87475  0.97966  0.86138  11.00000  10.07738  10.05677 =
 10.06365  10.00289 -10.02352 -10.00567 
AFIX 43
H00V  2     0.88884  0.95006  0.88455  11.00000 -1.20000 
AFIX 0
C00W  1     0.41761  0.46324  0.48550  11.00000  10.03995  10.03226 =
 10.05468 -10.00303 -10.00577 -10.00429 
AFIX 43
H00W  2     0.39907  0.41605  0.49183  11.00000  10.05000 
AFIX 0
N00X  4     0.80721  0.49337  0.72037  11.00000  10.11050  10.03517 =
 10.10292  10.03061  10.05953  10.02507 
C00Y  1     0.53860  0.90532  0.50900  11.00000  10.04387  10.03241 =
 10.05050  10.00872 -10.00998 -10.00281 
AFIX 43
H00Y  2     0.53097  0.86261  0.48520  11.00000  10.05000 
AFIX 0
C00Z  1     0.70479  0.91382  0.61851  11.00000  10.06449  10.02309 =
 10.06075 -10.00617 -10.03426 -10.00809 
AFIX 43
H00Z  2     0.70700  0.84850  0.61663  11.00000  10.05000 
AFIX 0
C010  1     0.85221  0.92791  0.82696  11.00000  10.05438  10.01716 =
 10.05188 -10.00027 -10.02444  10.00015 
AFIX 43
H010  2     0.85279  0.86229  0.82817  11.00000  10.05000 
AFIX 0
C011  1     0.72957  0.96379  0.65250  11.00000  10.04512  10.01232 =
 10.04962 -10.00052 -10.01509 -10.00555 
C012  1     0.42244  0.54361  0.51225  11.00000  10.03636  10.02794 =
 10.04868  10.00348 -10.00104 -10.00272 
AFIX 43
H012  2     0.40731  0.55161  0.53614  11.00000  10.05000 
AFIX 0
C013  1     0.72667  1.05921  0.65301  11.00000  10.04363  10.02754 =
 10.05334 -10.00074 -10.02123 -10.00495 
AFIX 43
H013  2     0.74414  1.09466  0.67516  11.00000  10.05000 
AFIX 0
C014  1     0.40660  0.80195  0.61711  11.00000  10.10319  10.03733 =
 10.08826  10.00294  10.04664  10.00780 
C015  1     0.85274  1.11362  0.82754  11.00000  10.05438  10.01716 =
 10.05188 -10.00027 -10.02444  10.00015 
AFIX 43
H015  2     0.85266  1.17929  0.82780  11.00000  10.05000 
AFIX 0
C016  1     0.67679  0.96336  0.58757  11.00000  10.05504  10.02724 =
 10.05696  10.00255 -10.02216 -10.00899 
AFIX 43
H016  2     0.65924  0.93002  0.56464  11.00000  10.05000 
AFIX 0
C017  1     0.56949  0.97288  0.50652  11.00000  10.04748  10.02044 =
 10.05759  10.00129 -10.00862 -10.00120 
AFIX 43
H017  2     0.58217  0.97576  0.48058  11.00000  10.05000 
AFIX 0
C018  1     0.82916  0.97243  0.79130  11.00000  10.05438  10.01716 =
 10.05188 -10.00027 -10.02444  10.00015 
C019  1     0.79712  0.68382  0.71757  11.00000  10.09379  10.01789 =
 10.07354 -10.00340  10.00969  10.00789 
C01A  1     0.69785  1.10134  0.62064  11.00000  10.05588  10.01245 =
 10.06784  10.00850 -10.02588 -10.00871 
AFIX 43
H01A  2     0.69541  1.16674  0.62140  11.00000  10.05000 
AFIX 0
C01B  1     0.56256  1.02874  0.57533  11.00000  10.07982  10.05542 =
 10.05873 -10.01231 -10.01125 -10.03215 
AFIX 43
H01B  2     0.57032  1.07285  0.59847  11.00000  10.05000 
AFIX 0
N01C  4     0.35499  0.83098  0.67917  11.00000  10.10319  10.03733 =
 10.08826  10.00294  10.04664  10.00780 
AFIX 43
H01C  2     0.33818  0.81616  0.65717  11.00000 -1.20000 
AFIX 0
C01D  1     0.77316  0.62939  0.68452  11.00000  10.09379  10.01789 =
 10.07354 -10.00340  10.00969  10.00789 
AFIX 43
H01D  2     0.75359  0.65568  0.66088  11.00000  10.05000 
AFIX 0
C01E  1     0.53184  0.96174  0.57990  11.00000  10.06732  10.05750 =
 10.05651 -10.01589  10.00076 -10.02919 
AFIX 43
H01E  2     0.51980  0.95860  0.60626  11.00000  10.05000 
AFIX 0
C01F  1     0.34244  0.77536  0.64180  11.00000  10.10319  10.03733 =
 10.08826  10.00294  10.04664  10.00780 
AFIX 43
H01F  2     0.32503  0.72375  0.64497  11.00000  10.05000 
AFIX 0
C01G  1     0.82837  1.06973  0.79202  11.00000  10.05438  10.01716 =
 10.05188 -10.00027 -10.02444  10.00015 
AFIX 43
H01G  2     0.81160  1.10387  0.76880  11.00000  10.05000 
AFIX 0
C01H  1     0.36757  0.75840  0.61225  11.00000  10.10319  10.03733 =
 10.08826  10.00294  10.04664  10.00780 
AFIX 43
H01H  2     0.35897  0.71703  0.58810  11.00000  10.05000 
AFIX 0
C01I  1     0.82838  0.54993  0.75064  11.00000  10.09379  10.01789 =
 10.07354 -10.00340  10.00969  10.00789 
AFIX 43
H01I  2     0.84869  0.52436  0.77380  11.00000  10.05000 
AFIX 0
C01J  1     0.78001  0.53003  0.68851  11.00000  10.12738  10.01759 =
 10.13035 -10.04684  10.06347 -10.03626 
AFIX 43
H01J  2     0.76403  0.49045  0.66706  11.00000  10.05000 
AFIX 0
C01K  1     0.82238  0.63989  0.74987  11.00000  10.09379  10.01789 =
 10.07354 -10.00340  10.00969  10.00789 
AFIX 43
H01K  2     0.83705  0.67549  0.77390  11.00000  10.05000 
AFIX 0
C01L  1     0.41988  0.85884  0.65368  11.00000  10.10319  10.03733 =
 10.08826  10.00294  10.04664  10.00780 
AFIX 43
H01L  2     0.44586  0.89083  0.65663  11.00000  10.05000 
AFIX 0
C01M  1     0.39446  0.86804  0.68581  11.00000  10.10319  10.03733 =
 10.08826  10.00294  10.04664  10.00780 
AFIX 43
H01M  2     0.40459  0.90045  0.71273  11.00000  10.05000 
AFIX 0
PART 2
Zn    5     0.30147  0.85202  0.70981 -21.00000  10.08605  10.01786 =
 10.06486  10.00031  10.02592 -10.00005 
Cl    3     0.24273  0.79437  0.67672 -21.00000  10.12387  10.02919 =
 10.09792  10.00504  10.04844 -10.00167 
Cl1A  3     0.33007  0.81691  0.78208 -21.00000  10.12387  10.02919 =
 10.09792  10.00504  10.04844 -10.00167 

PART 0
C2    1     0.53074  1.30587  0.65275  10.33333  10.07462  10.08804 =
 10.06889 -10.02086  10.00635  10.01067 
AFIX 43
H2    2     0.53048  1.34711  0.62836  10.33333 -1.20000 
AFIX 0
C3    1     0.55797  1.14852  0.68659  10.33333  10.07462  10.08804 =
 10.06889 -10.02086  10.00635  10.01067 
AFIX 23
H3a   2     0.58422  1.16924  0.67705  10.33333 -1.20000 
H3b   2     0.55756  1.08009  0.68608  10.33333 -1.20000 
AFIX 0
C4    1     0.55761  1.17850  0.72925  10.33333  10.07462  10.08804 =
 10.06889 -10.02086  10.00635  10.01067 
AFIX 43
H4    2     0.55091  1.14038  0.75251  10.33333 -1.20000 
AFIX 0
C11   1     0.51798  1.18748  0.65160  10.33333  10.07462  10.08804 =
 10.06889 -10.02086  10.00635  10.01067 
AFIX 23
H11a  2     0.49117  1.17601  0.66220  10.33333 -1.20000 
H11b  2     0.51662  1.16066  0.62138  10.33333 -1.20000 
AFIX 0
C18   1     0.54120  1.32372  0.69786  10.33333  10.07462  10.08804 =
 10.06889 -10.02086  10.00635  10.01067 
AFIX 43
H18   2     0.52991  1.37929  0.70751  10.33333 -1.20000 
AFIX 0
C19   1     0.56788  1.26841  0.73432  10.33333  10.07462  10.08804 =
 10.06889 -10.02086  10.00635  10.01067 
AFIX 43
H19   2     0.58866  1.29323  0.75725  10.33333 -1.20000 
AFIX 0

C1    1     0.43289  0.58660  0.69183  10.25000  0.17434  0.04775  0.18593 =
 0.06543  0.09999  0.03331 
AFIX 23
H1a   2     0.43418  0.65319  0.68466  10.25000 -1.20000 
H1b   2     0.45019  0.57769  0.72179  10.25000 -1.20000 
AFIX 0
C5    1     0.38752  0.56479  0.69593  10.25000  0.17434  0.04775  0.18593 =
 0.06543  0.09999  0.03331 
AFIX 23
H5a   2     0.38771  0.52423  0.72223  10.25000 -1.20000 
H5b   2     0.37345  0.62320  0.70175  10.25000 -1.20000 
AFIX 0
C6    1     0.36168  0.51842  0.65548  10.25000  0.17434  0.04775  0.18593 =
 0.06543  0.09999  0.03331 
AFIX 23
H6a   2     0.34586  0.46732  0.66652  10.25000 -1.20000 
H6b   2     0.34076  0.56399  0.64111  10.25000 -1.20000 
AFIX 0
C7    1     0.38364  0.47926  0.61938  10.25000  0.17434  0.04775  0.18593 =
 0.06543  0.09999  0.03331 
AFIX 23
H7a   2     0.36818  0.42378  0.60645  10.25000 -1.20000 
H7b   2     0.38250  0.52558  0.59519  10.25000 -1.20000 
AFIX 0
C8    1     0.42921  0.45297  0.63578  10.25000  0.17434  0.04775  0.18593 =
 0.06543  0.09999  0.03331 
AFIX 23
H8a   2     0.43043  0.40108  0.65723  10.25000 -1.20000 
H8b   2     0.44191  0.43182  0.61013  10.25000 -1.20000 
AFIX 0
C9    1     0.45434  0.53408  0.65839  10.25000  0.17434  0.04775  0.18593 =
 0.06543  0.09999  0.03331 
AFIX 23
H9a   2     0.45996  0.57778  0.63503  10.25000 -1.20000 
H9b   2     0.48174  0.51086  0.67413  10.25000 -1.20000 
AFIX 0
HKLF 5

END
Q1 1 0.537037 0.855556 0.6875 11 0.05 2.24
Q2 1 0.5 0.944444 0.75 11 0.05 2.09
Q4 1 0.648148 0.844444 0.447917 11 0.05 1.6
Q7 1 0.638889 1.077778 0.510417 11 0.05 1.47
Q5 1 0.240741 0.8 0.65625 11 0.05 1.52
Q9 1 0.351852 0.244444 0.5625 11 0.05 1.36
Q10 1 0.25 0.788889 0.697917 11 0.05 1.32
Q13 1 0.416667 0.544444 0.729167 11 0.05 1.19
Q14 1 0.314815 0.8 0.770833 11 0.05 1.12
Q18 1 0.453704 0.511111 0.697917 11 0.05 1.1
Q15 1 0.833333 0.644444 0.59375 11 0.05 1.11
Q17 1 0.712963 0.555556 0.510417 11 0.05 1.11
Q22 1 0.740741 0.388889 0.572917 11 0.05 1.02
Q16 1 0.444444 0.477778 0.666667 11 0.05 1.11
Q20 1 0.407407 0.522222 0.645833 11 0.05 1.05
Q19 1 0.62963 1.244444 0.864583 11 0.05 1.06
Q23 1 0.611111 0.888889 0.40625 11 0.05 1.02
Q24 1 0.87963 1.066667 0.864583 11 0.05 0.99
Q25 1 0.564815 1.222222 0.6875 11 0.05 0.95
Q28 1 0.527778 1.277778 0.65625 11 0.05 0.91
Q26 1 0.37963 0.577778 0.697917 11 0.05 0.92
Q27 1 0.305556 0.844444 0.697917 11 0.05 0.92
Q30 1 0.5 0.788889 0.75 11 0.05 0.83
Q33 1 0.388889 0.466667 0.6875 11 0.05 0.79
Q34 1 0.277778 0.744444 0.71875 11 0.05 0.78
Q35 1 0.342593 0.255556 0.604167 11 0.05 0.78
Q36 1 0.62037 1.222222 0.541667 11 0.05 0.77
Q45 1 0.657407 1.044444 0.458333 11 0.05 0.67
Q42 1 0.564815 1.3 0.729167 11 0.05 0.73
Q40 1 0.490741 1.166667 0.65625 11 0.05 0.74
Q43 1 0.398148 0.311111 0.395833 11 0.05 0.71
Q44 1 0.574074 1.144444 0.677083 11 0.05 0.7
Q47 1 0.342593 0.844444 0.802083 11 0.05 0.66
Q48 1 0.351852 0.811111 0.770833 11 0.05 0.64
Q46 1 0.407407 0.233333 0.65625 11 0.05 0.67
Q50 1 0.425926 0.344444 0.416667 11 0.05 0.61
Q29 1 0.592593 0.8 0.40625 11 0.05 0.87
Q37 1 0.518519 1.144444 0.677083 11 0.05 0.77
Q38 1 0.37963 0.844444 0.791667 11 0.05 0.76
Q3 1 0.703704 0.466667 0.552083 11 0.05 1.78
Q6 1 0.305556 0.6 0.510417 11 0.05 1.49
Q8 1 0.87037 0.611111 0.635417 11 0.05 1.46
Q11 1 0.296296 0.522222 0.489583 11 0.05 1.3
Q12 1 0.722222 1.355556 0.53125 11 0.05 1.22
Q21 1 0.5 1.211111 0.625 11 0.05 1.03
Q31 1 0.416667 0.444444 0.729167 11 0.05 0.82
Q32 1 0.759259 0.933333 0.5 11 0.05 0.81
Q39 1 0.37037 0.522222 0.65625 11 0.05 0.75
Q41 1 0.537037 1.2 0.645833 11 0.05 0.74
Q49 1 0.5 1.322222 0.635417 11 0.05 0.63

  REM The information below was added by Olex2.
  REM
  REM R1 = 0.1242 for 12700 Fo > 4sig(Fo) and 0.1480 for all 18980 data
  REM 246 parameters refined using 122 restraints
  REM Highest difference peak 2.2375, deepest hole -1.1276
  REM Mean Shift 0.0000, Max Shift 0.0005.

  REM +++ Tabular Listing of Refinement Information +++
  REM R1_all = 0.1480
  REM R1_gt = 0.1242
  REM wR_ref = 0.3932
  REM GOOF = 1.4940
  REM Shift_max = 0.0005
  REM Shift_mean = 0.0000
  REM Reflections_all = 18980
  REM Reflections_gt = 12700
  REM Parameters = 246
  REM Hole = -1.1276
  REM Peak = 2.2375
  REM Flack = n/a

  