TITL sc_daid_2_alpha_100k_c2_c_a.res in C2/c
    sc_daid_2_alpha_100k_c2_c.res
    created by SHELXL-2018/3 at 09:38:18 on 15-Sep-2020
REM Old TITL sc_daid_2_alpha_100k_c2_c_a.res in C2/c
REM SHELXT solution in C2/c: R1 0.239, Rweak 0.030, Alpha 0.073
REM <I/s> 0.494 for 619 systematic absences, Orientation as input
REM Formula found by SHELXT: C56 Cl6 N18 O16 Zn3
CELL 1.54184 33.3132 14.4948 31.7714 90 102.245 90
ZERR 8 0.0005 0.0002 0.0005 0 0.002 0
LATT 7
SYMM -X,+Y,0.5-Z
SFAC C H Cl N O Zn
UNIT 519.28 490.56 48 96 32 24
SIMU 0.001 0.001 2 C8 C21 C24 C15 C20 C10
SIMU 0.001 0.001 2 Cl1 Cl08
SIMU 0.01 0.01 2 C2 C7 C9 C12 C13 C19
RIGU 0.01 0.01 Cl Zn Cl1
RIGU 0.01 0.01 Cl09 Zn03 Cl08
SIMU 0.01 0.01 2 C01U C01W C023 C01X C01T C01Z
SIMU 0.01 0.01 2 C30 C31 C32 C33 C34 C35
SIMU 0.01 0.01 2 C22 C23 C25 C27 C28 C29
SIMU 0.01 0.01 2 C36 C37 C38 C39 C40 C41
SIMU 0.01 0.01 2 C01X C01T C01Z C01W C01U C023
SIMU 0.01 0.01 2 C43 C44 C45 C46 C47 C48
SIMU 0.01 0.01 2 C49 C50 C51 C52 C53 C54
SIMU 0.01 0.01 2 Cl Cl09
SIMU 0.01 0.01 2 Zn Zn03
EADP Zn03 Zn

L.S. 10
PLAN  31
SIZE 0.09 0.1 0.12
TEMP -173
CONF
FREE O C53
FREE O H53b
FREE O H53a
FREE O4 H26b
FREE O4 H26c
FREE O7 C48
FREE O7 C46
FREE O7 C47
FREE O7 H48
BOND
list 4
MORE -1
BOND $H
fmap 2
acta
OMIT 13 3 2
OMIT -5 3 3
OMIT 22 0 14
OMIT 5 1 14
OMIT 4 16 1
OMIT -4 8 2
OMIT -11 3 13
OMIT -4 6 6
REM <olex2.extras>
REM <HklSrc "%.\\SC_Daid_2_alpha_100K_C2_c.hkl">
REM </olex2.extras>

WGHT    0.067300  344.523865
FVAR       0.08661   0.94252
ZN01  6    0.383283   -0.125740    0.442189    11.00000    0.02605    0.01912 =
         0.03610   -0.00195   -0.01386    0.00060
ZN02  6    0.581872    0.633384    0.593860    11.00000    0.04212    0.01910 =
         0.02417   -0.00184   -0.00954    0.00259
PART 1
ZN03  6    0.698958    0.145295    0.290698    21.00000    0.04950    0.01535 =
         0.04566   -0.00191    0.01433   -0.00124
PART 0
CL04  3    0.362477   -0.113955    0.503517    11.00000    0.03159    0.04115 =
         0.04408    0.00973   -0.00260   -0.00271
CL05  3    0.397048   -0.254671    0.410470    11.00000    0.05635    0.02119 =
         0.05044   -0.00873   -0.02240    0.01140
CL06  3    0.523861    0.656385    0.615374    11.00000    0.04111    0.04392 =
         0.04890   -0.00588   -0.00903    0.01669
CL07  3    0.618008    0.743145    0.570837    11.00000    0.07562    0.02453 =
         0.04188    0.00149   -0.00059   -0.01293
PART 1
CL08  3    0.666497    0.182745    0.224935    21.00000    0.09863    0.02833 =
         0.04422    0.01252    0.01973    0.02228
CL09  3    0.758754    0.201471    0.323848    21.00000    0.04848    0.03435 =
         0.08727   -0.02360    0.02343   -0.01476
PART 0
N00A  4    0.433091   -0.039687    0.448053    11.00000    0.02335    0.02912 =
         0.03005   -0.00426   -0.00899    0.00215
N00B  4    0.621622   -0.562003    0.141507    11.00000    0.02800    0.01813 =
         0.02610    0.00195   -0.00200    0.00082
N00C  4    0.582469    0.288093    0.439401    11.00000    0.03146    0.02337 =
         0.02996   -0.00320   -0.00852    0.00011
N00D  4    0.703762    0.004782    0.289495    11.00000    0.03963    0.01529 =
         0.03890   -0.00185    0.00159   -0.00551
N00E  4    0.742405   -0.328629    0.313306    11.00000    0.02590    0.01816 =
         0.03351    0.00028   -0.00600    0.00240
N00F  4    0.840904   -0.557308    0.396482    11.00000    0.02883    0.01993 =
         0.03810   -0.00654   -0.01185   -0.00256
N00G  4    0.724280   -0.469134    0.275072    11.00000    0.02947    0.01514 =
         0.03155    0.00187   -0.01263    0.00015
N00H  4    0.688427   -0.330222    0.251310    11.00000    0.02525    0.01484 =
         0.03566    0.00106   -0.00812   -0.00234
N00I  4    0.547882    0.148612    0.414504    11.00000    0.02240    0.02920 =
         0.02770   -0.00409   -0.00649    0.00043
N00J  4    0.570041    0.531342    0.547578    11.00000    0.05260    0.02245 =
         0.02138   -0.00129   -0.00816   -0.00375
N00K  4    0.659748    0.168026    0.331462    11.00000    0.03764    0.02779 =
         0.03658   -0.00339    0.00432   -0.00510
N00L  4    0.529341    0.231403    0.471919    11.00000    0.03187    0.02132 =
         0.02742   -0.00511   -0.00340   -0.00009
C00M  1    0.709755   -0.186531    0.286402    11.00000    0.02591    0.01470 =
         0.03052    0.00146   -0.00016   -0.00009
C00N  1    0.646621   -0.609441    0.172769    11.00000    0.02794    0.01359 =
         0.03398    0.00593   -0.00466   -0.00171
AFIX  43
H00N  2    0.647366   -0.674793    0.170800    11.00000   -1.20000
AFIX   0
C00O  1    0.576563    0.212950    0.414178    11.00000    0.02643    0.02781 =
         0.02588   -0.00322   -0.00869    0.00316
C00P  1    0.533674    0.395594    0.520049    11.00000    0.02820    0.01957 =
         0.03908   -0.00631   -0.01024    0.00088
AFIX  43
H00P  2    0.511373    0.354664    0.519910    11.00000   -1.20000
AFIX   0
C00Q  1    0.713207   -0.287049    0.283179    11.00000    0.02293    0.02075 =
         0.02807    0.00177   -0.00312    0.00030
C00R  1    0.746584   -0.419805    0.307152    11.00000    0.02561    0.01606 =
         0.03488    0.00057   -0.00603   -0.00320
C00S  1    0.621262   -0.469796    0.143772    11.00000    0.02722    0.02243 =
         0.03465    0.00664   -0.01390   -0.00193
AFIX  43
H00S  2    0.603943   -0.436069    0.121417    11.00000   -1.20000
AFIX   0
C00T  1    0.695612   -0.420679    0.247725    11.00000    0.02518    0.01965 =
         0.03128    0.00099   -0.00753   -0.00080
C00U  1    0.670583   -0.471246    0.210973    11.00000    0.02215    0.01823 =
         0.03108    0.00304   -0.00876    0.00001
C00V  1    0.557444    0.294712    0.466903    11.00000    0.03230    0.02309 =
         0.02394   -0.00512   -0.00991    0.00423
C00W  1    0.538490    0.472485    0.545868    11.00000    0.03285    0.02111 =
         0.03587   -0.00572   -0.01298    0.00396
AFIX  43
H00W  2    0.518957    0.484509    0.563050    11.00000   -1.20000
AFIX   0
C00X  1    0.645187   -0.422382    0.177457    11.00000    0.03086    0.00926 =
         0.04245    0.00441   -0.01700    0.00080
AFIX  43
H00X  2    0.644525   -0.356878    0.178034    11.00000   -1.20000
AFIX   0
C00Y  1    0.466439    0.102236    0.473304    11.00000    0.03300    0.02841 =
         0.02600   -0.00508   -0.00666    0.00255
AFIX  43
H00Y  2    0.467918    0.155017    0.491295    11.00000   -1.20000
AFIX   0
C00Z  1    0.493789    0.090707    0.446310    11.00000    0.02151    0.02665 =
         0.02638   -0.00492   -0.00961    0.00411
C010  1    0.671377   -0.566361    0.207814    11.00000    0.02940    0.01812 =
         0.03099   -0.00036   -0.00499    0.00177
AFIX  43
H010  2    0.688726   -0.601820    0.229459    11.00000   -1.20000
AFIX   0
C011  1    0.460290   -0.051260    0.422734    11.00000    0.03377    0.02409 =
         0.04319   -0.00994   -0.00524    0.00408
AFIX  43
H011  2    0.458302   -0.104835    0.405189    11.00000   -1.20000
AFIX   0
C012  1    0.525779    0.160963    0.444090    11.00000    0.02557    0.02364 =
         0.02507   -0.00544   -0.01075    0.00170
C013  1    0.436902    0.034904    0.473398    11.00000    0.02796    0.02826 =
         0.03370   -0.00797   -0.00006   -0.00007
AFIX  43
H013  2    0.418533    0.042052    0.492317    11.00000   -1.20000
AFIX   0
C014  1    0.605224    0.199111    0.384897    11.00000    0.03425    0.02587 =
         0.02900   -0.00280   -0.00287    0.00237
C015  1    0.779071   -0.467709    0.338316    11.00000    0.02528    0.01950 =
         0.03206   -0.00015   -0.01520    0.00109
C016  1    0.837264   -0.465177    0.396867    11.00000    0.03002    0.01769 =
         0.03429   -0.00363   -0.01159   -0.00088
AFIX  43
H016  2    0.856157   -0.430891    0.417640    11.00000   -1.20000
AFIX   0
C017  1    0.807284   -0.418249    0.368407    11.00000    0.03095    0.01671 =
         0.03312   -0.00101   -0.00806   -0.00394
AFIX  43
H017  2    0.805902   -0.352837    0.369329    11.00000   -1.20000
AFIX   0
C018  1    0.490993    0.011762    0.421269    11.00000    0.03164    0.02595 =
         0.03970   -0.00726    0.00041   -0.00187
AFIX  43
H018  2    0.509985    0.001163    0.403312    11.00000   -1.20000
AFIX   0
C019  1    0.734180   -0.136566    0.318955    11.00000    0.03056    0.02250 =
         0.04161   -0.00195   -0.00491    0.00153
AFIX  43
H019  2    0.753521   -0.167129    0.340774    11.00000   -1.20000
AFIX   0
C01A  1    0.561293    0.378029    0.494356    11.00000    0.04071    0.02125 =
         0.02520   -0.00085   -0.01542    0.00047
C01B  1    0.730334   -0.041734    0.319624    11.00000    0.03469    0.02311 =
         0.04339   -0.00570   -0.00663   -0.00017
AFIX  43
H01B  2    0.747206   -0.008141    0.342358    11.00000   -1.20000
AFIX   0
C01C  1    0.782269   -0.562630    0.338230    11.00000    0.03609    0.01946 =
         0.05769   -0.00604   -0.02690   -0.00138
AFIX  43
H01C  2    0.763075   -0.598531    0.318502    11.00000   -1.20000
AFIX   0
C01D  1    0.682759   -0.138752    0.254651    11.00000    0.06168    0.01790 =
         0.03713   -0.00322   -0.01810    0.00471
AFIX  43
H01D  2    0.665916   -0.170777    0.231342    11.00000   -1.20000
AFIX   0
C1    1    0.813970   -0.605164    0.367411    11.00000    0.03924    0.01537 =
         0.05629   -0.00925   -0.02246   -0.00290
AFIX  43
H1    2    0.816545   -0.670382    0.366635    11.00000   -1.20000
AFIX   0
C01F  1    0.680731   -0.043466    0.257454    11.00000    0.07229    0.01660 =
         0.04218    0.00197   -0.02340    0.00343
AFIX  43
H01F  2    0.662142   -0.011098    0.235622    11.00000   -1.20000
AFIX   0
C01G  1    0.644447    0.231479    0.395525    11.00000    0.03002    0.06651 =
         0.04609   -0.02884   -0.00247   -0.00414
AFIX  43
H01G  2    0.653558    0.265581    0.421318    11.00000   -1.20000
AFIX   0
C01H  1    0.670943    0.213899    0.368096    11.00000    0.02909    0.05868 =
         0.05275   -0.02139    0.00235   -0.00339
AFIX  43
H01H  2    0.698385    0.235831    0.376004    11.00000   -1.20000
AFIX   0
C01I  1    0.593761    0.438099    0.495694    11.00000    0.06931    0.03623 =
         0.03986   -0.01635    0.01778   -0.01961
AFIX  43
H01I  2    0.613635    0.427471    0.478762    11.00000   -1.20000
AFIX   0
C01J  1    0.596465    0.514998    0.522732    11.00000    0.07942    0.02972 =
         0.03974   -0.01465    0.01231   -0.03010
AFIX  43
H01J  2    0.618292    0.557460    0.523275    11.00000   -1.20000
AFIX   0

PART 1
O1    5    0.783644   -0.359327    0.467354    10.50000    0.03347    0.02235 =
         0.03055   -0.00056    0.00387   -0.00670

PART 0
C01L  1    0.593674    0.149307    0.347630    11.00000    0.05025    0.08598 =
         0.05705   -0.03571    0.01871   -0.03722
AFIX  43
H01L  2    0.566771    0.124291    0.339679    11.00000   -1.20000
AFIX   0

O5    5    0.754749    0.167505    0.434594    10.50000    0.04309    0.02820 =
         0.05388   -0.00917    0.00873   -0.00774
C01N  1    0.621721    0.135973    0.321762    11.00000    0.06260    0.09470 =
         0.05589   -0.04409    0.02378   -0.03871
AFIX  43
H01N  2    0.613279    0.102168    0.295773    11.00000   -1.20000
AFIX   0

O     5    0.725410   -0.657236    0.435867    10.50000    0.02929    0.03228 =
         0.06623   -0.00828   -0.00981   -0.00544
PART 1
O2    5    0.686341   -0.239297    0.383523    10.50000    0.02256    0.04233 =
         0.05479   -0.01251    0.00264   -0.00674
C01T  1    0.725909   -0.565447    0.431759    10.50000    0.02001    0.03201 =
         0.04401   -0.01090   -0.00460   -0.00471
C01U  1    0.718704   -0.373787    0.416799    10.50000    0.02042    0.03073 =
         0.04120   -0.00743    0.00644   -0.00851
C01V  1    0.788466   -0.072633    0.431391    10.50000    0.02075    0.03249 =
         0.03930   -0.00076    0.00411   -0.00664
AFIX  43
H01V  2    0.812407   -0.107219    0.430134    10.50000   -1.20000
AFIX   0
C01W  1    0.751976   -0.413681    0.444909    10.50000    0.01685    0.03373 =
         0.03739   -0.00837    0.00529   -0.00972
C01X  1    0.692119   -0.524152    0.401953    10.50000    0.01969    0.03513 =
         0.05219   -0.01222   -0.00798   -0.00490
AFIX  43
H01X  2    0.671278   -0.563113    0.386270    10.50000   -1.20000
AFIX   0
C01Z  1    0.756495   -0.505834    0.453454    10.50000    0.01949    0.03233 =
         0.03475   -0.00958   -0.00224   -0.00311
AFIX  43
H01Z  2    0.779649   -0.528810    0.473480    10.50000   -1.20000
AFIX   0
C022  1    0.755115    0.075164    0.432338    10.50000    0.04311    0.03524 =
         0.03472   -0.00752    0.00553   -0.00605
C023  1    0.689044   -0.436715    0.395730    10.50000    0.02036    0.03393 =
         0.05183   -0.01254    0.00116   -0.01294
AFIX  43
H023  2    0.665712   -0.413521    0.376032    10.50000   -1.20000
AFIX   0
C024  1    0.790678    0.022116    0.432602    10.50000    0.02756    0.04184 =
         0.04478   -0.00598    0.00649   -0.01825
AFIX  43
H024  2    0.816255    0.051961    0.433621    10.50000   -1.20000
AFIX   0
C025  1    0.718924    0.028284    0.431741    10.50000    0.03708    0.03292 =
         0.04217   -0.00613    0.01585   -0.00410
AFIX  43
H025  2    0.694753    0.062795    0.432092    10.50000   -1.20000
AFIX   0
C026  1    0.750927   -0.120490    0.431978    10.50000    0.03314    0.02198 =
         0.02822   -0.00568    0.00247   -0.00802
C027  1    0.749039   -0.222159    0.434419    10.50000    0.02530    0.03972 =
         0.02891   -0.01190    0.00281   -0.01144
C029  1    0.780114   -0.266329    0.461607    10.50000    0.02820    0.02881 =
         0.03506    0.00300   -0.00070   -0.00924
AFIX  43
H029  2    0.801212   -0.229067    0.478034    10.50000   -1.20000
AFIX   0
C02B  1    0.716565   -0.063930    0.430686    10.50000    0.03092    0.03836 =
         0.03652    0.00081    0.01117   -0.00178
AFIX  43
H02B  2    0.690537   -0.092172    0.428991    10.50000   -1.20000
AFIX   0
C02E  1    0.714896   -0.275353    0.408894    10.50000    0.02019    0.03675 =
         0.03891   -0.00415    0.00153   -0.00498
PART 2
C02G  1    0.760128   -0.700954    0.463651    10.50000    0.03978    0.03340 =
         0.05908   -0.00261   -0.00473   -0.00813
AFIX 137
H02A  2    0.784898   -0.690183    0.452335    10.50000   -1.50000
H02C  2    0.755116   -0.767440    0.464781    10.50000   -1.50000
H02D  2    0.763930   -0.674910    0.492694    10.50000   -1.50000
AFIX   0
PART 1
C02J  1    0.793082    0.214701    0.441052    10.50000    0.05263    0.03356 =
         0.06316   -0.00509    0.00332   -0.01309
AFIX 137
H02E  2    0.806102    0.202556    0.416695    10.50000   -1.50000
H02F  2    0.811032    0.192857    0.467712    10.50000   -1.50000
H02G  2    0.788480    0.281156    0.443193    10.50000   -1.50000
AFIX   0

PART 2
O3    5    0.551462   -0.416198    0.196864    10.50000    0.04945    0.04228 =
         0.04886    0.00361    0.00095   -0.00264
O6    5    0.619579   -0.278546    0.299362    10.50000    0.05048    0.07279 =
         0.03458   -0.00382   -0.00872   -0.00153
C3    1    0.591603   -0.618917    0.263175    10.50000    0.03422    0.03830 =
         0.03411    0.00702   -0.00181    0.02491
C4    1    0.569782   -0.559637    0.229833    10.50000    0.03228    0.03776 =
         0.03975    0.00451    0.00339    0.01170
AFIX  43
H4    2    0.551780   -0.585930    0.205583    10.50000   -1.20000
AFIX   0
C5    1    0.572997   -0.269026    0.231965    10.50000    0.03410    0.04386 =
         0.02896    0.00813   -0.01011    0.00222
C6    1    0.574432   -0.467250    0.232390    10.50000    0.02870    0.03740 =
         0.05252    0.00143    0.00343    0.00456
PART 0
O4    5    0.547861    0.111171    0.226811    10.50000    0.16537    0.04031 =
         0.04621    0.00139   -0.03046   -0.00982
O7    5    0.589956   -0.703678    0.264004    10.50000    0.10201    0.05656 =
         0.05980    0.01911    0.01941    0.01809
PART 2
C11   1    0.617886   -0.573823    0.296678    10.50000    0.07438    0.06987 =
         0.04040    0.01463    0.01565    0.04236
AFIX  43
H11   2    0.634573   -0.609075    0.318911    10.50000   -1.20000
AFIX   0
C14   1    0.599021   -0.319791    0.268635    10.50000    0.03071    0.06085 =
         0.03994    0.01408    0.00383    0.00094
C16   1    0.552298   -0.323275    0.199982    10.50000    0.04716    0.04861 =
         0.04492    0.00875   -0.00863    0.00351
AFIX  43
H16   2    0.535984   -0.291394    0.176277    10.50000   -1.20000
AFIX   0
C17   1    0.598026   -0.419761    0.265963    10.50000    0.04190    0.06901 =
         0.03629    0.01632    0.01148    0.00208
C18   1    0.620206   -0.478075    0.298258    10.50000    0.06914    0.06152 =
         0.02630    0.00661    0.00902    0.01134
AFIX  43
H18   2    0.637716   -0.450333    0.322449    10.50000   -1.20000
AFIX  66
C20   1    0.570771   -0.170105    0.230527    10.50000    0.07257    0.04595 =
         0.04757    0.00061   -0.01874   -0.01306
C15   1    0.571697   -0.123113    0.192608    10.50000    0.07276    0.04598 =
         0.04753    0.00067   -0.01888   -0.01295
AFIX  43
H15   2    0.577304   -0.155558    0.168518    10.50000   -1.20000
AFIX  65
C24   1    0.564421   -0.028648    0.189936    10.50000    0.07307    0.04605 =
         0.04764    0.00067   -0.01888   -0.01292
AFIX  43
H24   2    0.565054    0.003469    0.164020    10.50000   -1.20000
AFIX  65
C21   1    0.556218    0.018826    0.225184    10.50000    0.07311    0.04598 =
         0.04770    0.00056   -0.01886   -0.01294
C8    1    0.555291   -0.028166    0.263103    10.50000    0.07299    0.04596 =
         0.04762    0.00051   -0.01881   -0.01295
AFIX  43
H8    2    0.549685    0.004280    0.287193    10.50000   -1.20000
AFIX  65
C10   1    0.562568   -0.122631    0.265775    10.50000    0.07273    0.04605 =
         0.04763    0.00056   -0.01876   -0.01304
AFIX  43
H10   2    0.561935   -0.154747    0.291691    10.50000   -1.20000
AFIX   0

PART 3
C2    1    0.545520   -0.192284    0.402888    10.50000    0.06431    0.06760 =
         0.05104    0.00379   -0.00253    0.01946
AFIX  23
H2A   2    0.530087   -0.162415    0.376321    10.50000   -1.20000
H2B   2    0.531630   -0.176795    0.426603    10.50000   -1.20000
AFIX   0

PART 2
C26   1    0.564733    0.246371    0.228368    10.50000    0.09307    0.03471 =
         0.13640    0.03319    0.00856    0.00034
AFIX 137
H26A  2    0.572783    0.263487    0.201480    10.50000   -1.50000
H26B  2    0.535776    0.262032    0.226399    10.50000   -1.50000
H26C  2    0.568617    0.179886    0.233177    10.50000   -1.50000
AFIX   0

PART 3
C7    1    0.613264   -0.202235    0.452011    10.50000    0.05622    0.07144 =
         0.04927    0.00713    0.00446    0.01014
AFIX  23
H7A   2    0.641693   -0.177999    0.458023    10.50000   -1.20000
H7B   2    0.601265   -0.189720    0.477400    10.50000   -1.20000
AFIX   0
C9    1    0.544799   -0.296770    0.396488    10.50000    0.06057    0.06224 =
         0.04926    0.00316   -0.00813    0.01628
AFIX  23
H9A   2    0.516134   -0.319137    0.392136    10.50000   -1.20000
H9B   2    0.555150   -0.311740    0.370297    10.50000   -1.20000
AFIX   0
C12   1    0.613741   -0.303672    0.444108    10.50000    0.04866    0.06867 =
         0.05087    0.00742    0.00806    0.01374
AFIX  23
H12A  2    0.630543   -0.334275    0.469744    10.50000   -1.20000
H12B  2    0.626828   -0.315586    0.419422    10.50000   -1.20000
AFIX   0
C13   1    0.588356   -0.155226    0.413245    10.50000    0.06559    0.06882 =
         0.04860    0.00480    0.00049    0.01590
AFIX  23
H13A  2    0.587609   -0.088073    0.418715    10.50000   -1.20000
H13B  2    0.601390   -0.164823    0.388333    10.50000   -1.20000
AFIX   0
C19   1    0.570757   -0.345502    0.434649    10.50000    0.05518    0.06215 =
         0.05150    0.00810   -0.00065    0.01393
AFIX  23
H19A  2    0.572331   -0.412123    0.428324    10.50000   -1.20000
H19B  2    0.558226   -0.338607    0.460079    10.50000   -1.20000
AFIX   0

PART 4
C23   1    0.675040   -0.131076    0.402227     0.41764    0.05742    0.06586 =
         0.05122    0.00464    0.00767   -0.00108
AFIX  23
H23A  2    0.672675   -0.196319    0.392806     0.50286   -1.20000
H23B  2    0.702017   -0.107472    0.398692     0.43538   -1.20000
AFIX   0
C29   1    0.597311   -0.096770    0.428609     0.40895    0.05616    0.05596 =
         0.04107    0.00531    0.00243    0.00991
AFIX  23
H29A  2    0.570796   -0.120643    0.433399     0.60117   -1.20000
H29B  2    0.599478   -0.031184    0.437499     0.06170   -1.20000
AFIX   0

C35   1    0.579339   -0.393610    0.403956    10.33333    0.05369    0.06147 =
         0.06746    0.00523    0.02908    0.00017
AFIX  23
H35A  2    0.590791   -0.350890    0.385210    10.33333   -1.20000
H35B  2    0.601926   -0.411965    0.428088    10.33333   -1.20000
AFIX   0
C33   1    0.529911   -0.451839    0.342017    10.33333    0.06628    0.06342 =
         0.06113    0.00679    0.02859    0.00233
AFIX  23
H33A  2    0.517982   -0.509317    0.327792    10.33333   -1.20000
H33B  2    0.541394   -0.415852    0.320844    10.33333   -1.20000
AFIX   0

C27   1    0.632227   -0.150750    0.456743     0.36839    0.05644    0.05153 =
         0.04342    0.00188    0.00568    0.01183
AFIX  23
H27A  2    0.632574   -0.138224    0.487450     0.17737   -1.20000
H27B  2    0.627504   -0.217636    0.451647     0.79500   -1.20000
AFIX   0

C30   1    0.546082   -0.343460    0.421964    10.33333    0.05399    0.06093 =
         0.07163   -0.00016    0.02090    0.00052
AFIX  23
H30A  2    0.558059   -0.289143    0.438989    10.33333   -1.20000
H30B  2    0.534633   -0.385279    0.441081    10.33333   -1.20000
AFIX   0
C34   1    0.563320   -0.475404    0.379295    10.33333    0.06310    0.06030 =
         0.06238    0.00771    0.03132    0.00462
AFIX  23
H34A  2    0.552745   -0.519153    0.398278    10.33333   -1.20000
H34B  2    0.585862   -0.506263    0.368842    10.33333   -1.20000
AFIX   0
C31   1    0.511901   -0.312506    0.384048    10.33333    0.05912    0.06037 =
         0.07055   -0.00228    0.02264    0.00170
AFIX  23
H31A  2    0.489467   -0.282959    0.395210    10.33333   -1.20000
H31B  2    0.522989   -0.266515    0.366473    10.33333   -1.20000
AFIX   0

C25   1    0.640312   -0.073923    0.374191     0.41769    0.06106    0.06309 =
         0.04286    0.00509    0.00662   -0.00399
AFIX  23
H25A  2    0.641241   -0.082014    0.343472     0.36072   -1.20000
H25B  2    0.644793   -0.007746    0.381379     0.34358   -1.20000
AFIX   0
C28   1    0.597486   -0.102880    0.381030     0.41837    0.05909    0.05959 =
         0.04148    0.00734    0.00230    0.00379
AFIX  23
H28A  2    0.576170   -0.061624    0.364473     0.26617   -1.20000
H28B  2    0.591313   -0.166818    0.370708     0.16262   -1.20000
AFIX   0
C22   1    0.672417   -0.125129    0.447298     0.34708    0.05496    0.06002 =
         0.05038    0.00195    0.00583    0.00798
AFIX  23
H22A  2    0.678900   -0.061070    0.457268     0.86739   -1.20000
H22B  2    0.693750   -0.165712    0.464303     0.36766   -1.20000
AFIX   0

C32   1    0.495206   -0.394192    0.356375    10.33333    0.06105    0.06150 =
         0.06026    0.00588    0.02651   -0.00116
AFIX  23
H32A  2    0.475608   -0.372038    0.330440    10.33333   -1.20000
H32B  2    0.479973   -0.434654    0.372648    10.33333   -1.20000
AFIX   0
PART 3
C37   1    0.541323   -0.088363    0.202929    10.25000    0.04028    0.04239 =
         0.02687   -0.00370   -0.00912   -0.01039
AFIX  23
H37A  2    0.542926   -0.045422    0.179110    10.25000   -1.20000
H37B  2    0.512706   -0.111042    0.198577    10.25000   -1.20000
AFIX   0
C40   1    0.582737   -0.182864    0.281342    10.25000    0.04511    0.04126 =
         0.03108   -0.00258   -0.00304    0.00114
AFIX  23
H40A  2    0.611330   -0.159990    0.285791    10.25000   -1.20000
H40B  2    0.581313   -0.228050    0.304346    10.25000   -1.20000
AFIX   0
C41   1    0.553939   -0.102797    0.283920    10.25000    0.04769    0.03403 =
         0.02346   -0.00854   -0.00846   -0.00339
AFIX  23
H41A  2    0.563870   -0.067915    0.310910    10.25000   -1.20000
H41B  2    0.526114   -0.126513    0.284136    10.25000   -1.20000
AFIX   0
C38   1    0.570944   -0.172233    0.201663    10.25000    0.03835    0.04649 =
         0.03226   -0.00521   -0.00602   -0.00576
AFIX  23
H38A  2    0.561235   -0.208935    0.175180    10.25000   -1.20000
H38B  2    0.599019   -0.149777    0.201709    10.25000   -1.20000
AFIX   0
C36   1    0.552106   -0.038166    0.244572    10.25000    0.04912    0.03879 =
         0.02534   -0.00520   -0.00854   -0.00852
AFIX  23
H36A  2    0.531452    0.010701    0.245080    10.25000   -1.20000
H36B  2    0.579136   -0.007936    0.246890    10.25000   -1.20000
AFIX   0
C39   1    0.571226   -0.228059    0.239030    10.25000    0.04424    0.04517 =
         0.03471   -0.00434   -0.00326    0.00017
AFIX  23
H39A  2    0.590394   -0.280065    0.238577    10.25000   -1.20000
H39B  2    0.543442   -0.254703    0.236409    10.25000   -1.20000
AFIX   0
PART 1
C42   1    0.547536    0.164771    0.189415    10.50000    0.22640    0.05793 =
         0.10372    0.05091   -0.10227   -0.07302
AFIX 137
H42A  2    0.525183    0.143887    0.166113    10.50000   -1.50000
H42B  2    0.573826    0.157630    0.180595    10.50000   -1.50000
H42C  2    0.543376    0.229848    0.195687    10.50000   -1.50000
AFIX   0
PART 3
C45   1    0.577647   -0.550054    0.332628    10.25000    0.03376    0.09246 =
         0.02883   -0.01489    0.00542    0.01420
AFIX  23
H45A  2    0.557479   -0.596286    0.338093    10.25000   -1.20000
H45B  2    0.593162   -0.527089    0.360745    10.25000   -1.20000
AFIX   0
C44   1    0.555951   -0.472533    0.307170    10.25000    0.03560    0.08713 =
         0.03664   -0.02090    0.00678    0.01867
AFIX  23
H44A  2    0.575996   -0.423666    0.304413    10.25000   -1.20000
H44B  2    0.535685   -0.445997    0.322491    10.25000   -1.20000
AFIX   0
C43   1    0.534345   -0.503329    0.263258    10.25000    0.03461    0.09178 =
         0.04101   -0.01547    0.00870    0.01919
AFIX  23
H43A  2    0.512761   -0.548977    0.265392    10.25000   -1.20000
H43B  2    0.521331   -0.450081    0.246117    10.25000   -1.20000
AFIX   0
C46   1    0.564529   -0.543611    0.243646    10.25000    0.03512    0.09398 =
         0.03848   -0.01731    0.00955    0.01966
AFIX  43
H46   2    0.571991   -0.513748    0.219811    10.25000   -1.20000
AFIX   0
C48   1    0.578636   -0.605422    0.254976    10.25000    0.03847    0.09162 =
         0.03750   -0.01842    0.00537    0.01892
AFIX  43
H48   2    0.576535   -0.660843    0.238694    10.25000   -1.20000
AFIX   0
C47   1    0.606818   -0.594179    0.308037    10.25000    0.03793    0.09202 =
         0.03539   -0.01480    0.00489    0.01775
AFIX  23
H47A  2    0.615982   -0.655308    0.320323    10.25000   -1.20000
H47B  2    0.631251   -0.554696    0.309033    10.25000   -1.20000
AFIX   0

C53   1    0.706888   -0.565860    0.454251    10.25000    0.05969    0.05422 =
         0.05375   -0.00386    0.02421   -0.01515
AFIX  23
H53A  2    0.676644   -0.563000    0.450494    10.25000   -1.20000
H53B  2    0.715217   -0.631529    0.456834    10.25000   -1.20000
AFIX   0
C54   1    0.724922   -0.519783    0.490959    10.25000    0.06483    0.05917 =
         0.06142    0.00323    0.01769   -0.01877
AFIX  23
H54A  2    0.755017   -0.528824    0.495914    10.25000   -1.20000
H54B  2    0.715470   -0.547774    0.515579    10.25000   -1.20000
AFIX   0
C52   1    0.719253   -0.524291    0.415821    10.25000    0.06261    0.05752 =
         0.05380   -0.00529    0.02246   -0.01409
AFIX  23
H52A  2    0.706357   -0.559481    0.389745    10.25000   -1.20000
H52B  2    0.749425   -0.529017    0.419301    10.25000   -1.20000
AFIX   0
C50   1    0.730081   -0.377302    0.448269    10.25000    0.06863    0.06176 =
         0.06242    0.00266    0.01571   -0.01741
AFIX  23
H50A  2    0.726461   -0.309488    0.447621    10.25000   -1.20000
H50B  2    0.759498   -0.390705    0.449813    10.25000   -1.20000
AFIX   0
C49   1    0.716344   -0.419288    0.490463    10.25000    0.06739    0.06511 =
         0.06292    0.00215    0.01680   -0.01724
AFIX  23
H49A  2    0.732154   -0.389825    0.516954    10.25000   -1.20000
H49B  2    0.686733   -0.408167    0.488833    10.25000   -1.20000
AFIX   0
C51   1    0.705712   -0.417122    0.409444    10.25000    0.06301    0.06056 =
         0.05383   -0.00070    0.01890   -0.01417
AFIX  23
H51A  2    0.712880   -0.390503    0.383298    10.25000   -1.20000
H51B  2    0.675937   -0.409084    0.407988    10.25000   -1.20000
AFIX   0

PART 2
ZN    6    0.703937    0.143351    0.305534   -21.00000    0.04950    0.01535 =
         0.04566   -0.00191    0.01433   -0.00124
CL    3    0.764009    0.171865    0.350867   -21.00000    0.03347    0.03901 =
         0.08094   -0.02083    0.02456   -0.01739
CL1   3    0.690101    0.206474    0.244077   -21.00000    0.09864    0.02819 =
         0.04428    0.01251    0.01979    0.02231
HKLF 4




REM  sc_daid_2_alpha_100k_c2_c_a.res in C2/c
REM wR2 = 0.2527, GooF = S = 1.088, Restrained GooF = 1.077 for all data
REM R1 = 0.0897 for 12243 Fo > 4sig(Fo) and 0.1037 for all 14933 data
REM 1248 parameters refined using 320 restraints

END  
     
WGHT      0.0666    346.3068 

REM Highest difference peak  1.239,  deepest hole -0.715,  1-sigma level  0.129
Q1    1   0.5866  0.3754  0.5302  11.00000  0.05    1.24
Q2    1   0.8528  0.1241  0.4114  11.00000  0.05    1.15
Q3    1   0.4470  0.1288  0.4316  11.00000  0.05    1.10
Q4    1   0.8842 -0.3664  0.3756  11.00000  0.05    1.05
Q5    1   0.5772 -0.6123  0.3259  11.00000  0.05    0.87
Q6    1   0.5475 -0.6320  0.2833  11.00000  0.05    0.79
Q7    1   0.7303 -0.6514  0.3217  11.00000  0.05    0.74
Q8    1   0.6728 -0.6480  0.2650  11.00000  0.05    0.71
Q9    1   0.5726 -0.4796  0.2594  11.00000  0.05    0.70
Q10   1   0.5568  0.1257  0.4985  11.00000  0.05    0.70
Q11   1   0.8325  0.1174  0.4699  11.00000  0.05    0.69
Q12   1   0.5737 -0.5005  0.3292  11.00000  0.05    0.68
Q13   1   0.4285 -0.1379  0.3989  11.00000  0.05    0.67
Q14   1   0.5571  0.1497  0.1518  11.00000  0.05    0.65
Q15   1   0.5910 -0.4611  0.2959  11.00000  0.05    0.64
Q16   1   0.3857 -0.1901  0.4439  11.00000  0.05    0.63
Q17   1   0.6798 -0.5151  0.4364  11.00000  0.05    0.63
Q18   1   0.4289 -0.2411  0.4417  11.00000  0.05    0.61
Q19   1   0.6378 -0.6847  0.1985  11.00000  0.05    0.59
Q20   1   0.7649 -0.4611  0.4499  11.00000  0.05    0.59
Q21   1   0.7453 -0.5372  0.4806  11.00000  0.05    0.58
Q22   1   0.4758  0.3733  0.4644  11.00000  0.05    0.57
Q23   1   0.6532 -0.6364  0.2975  11.00000  0.05    0.57
Q24   1   0.5550 -0.2431  0.2397  11.00000  0.05    0.55
Q25   1   0.5415  0.3672  0.5713  11.00000  0.05    0.54
Q26   1   0.5335  0.2280  0.2094  11.00000  0.05    0.53
Q27   1   0.3655 -0.2407  0.3796  11.00000  0.05    0.52
Q28   1   0.6948 -0.6873  0.2577  11.00000  0.05    0.52
Q29   1   0.7376  0.1228  0.2890  11.00000  0.05    0.52
Q30   1   0.5863  0.7522  0.5398  11.00000  0.05    0.50
Q31   1   0.5415  0.6355  0.6427  11.00000  0.05    0.50

  REM The information below was added by Olex2.
  REM
  REM R1 = 0.0897 for 12243 Fo > 4sig(Fo) and 0.1037 for all 48713 data
  REM 1248 parameters refined using n/a restraints
  REM Highest difference peak 1.24, deepest hole -0.72
  REM Mean Shift 0, Max Shift 0.001.

  REM +++ Tabular Listing of Refinement Information +++
  REM R1_all = 0.1037
  REM R1_gt = 0.0897
  REM wR_ref = 0.2527
  REM GOOF = 1.088
  REM Shift_max = 0.001
  REM Shift_mean = 0
  REM Reflections_all = 48713
  REM Reflections_gt = 12243
  REM Parameters = 1248
  REM Hole = -0.72
  REM Peak = 1.24
  REM Flack = n/a

  